     Program PWSCF v.6.7MaX starts on  4Apr2024 at 15:46:15

     R & G space division:  proc/nbgrp/npool/nimage =       3
     Reading input from pwscf_kpoints-6.in

     Current dimensions of program PWSCF are:
     Max number of different atomic species (ntypx) = 10
     Max number of k-points (npk) =  40000
     Max angular momentum in pseudopotentials (lmaxx) =  3
     file Pb.pbe-dn-kjpaw_psl.0.2.2.UPF: wavefunction(s)  6S renormalized

     Subspace diagonalization in iterative solution of the eigenvalue problem:
     a serial algorithm will be used

     Found symmetry operation: I + (  0.0000  0.0000  0.5000)
     This is a supercell, fractional translations are disabled
     Message from routine setup:
     using ibrav=0 with symmetry is DISCOURAGED, use correct ibrav instead

     bravais-lattice index     =            0
     lattice parameter (alat)  =      24.1188  a.u.
     unit-cell volume          =   14030.3801 (a.u.)^3
     number of atoms/cell      =           40
     number of atomic types    =            3
     number of electrons       =       352.00
     number of Kohn-Sham states=          211
     kinetic-energy cutoff     =      40.0000  Ry
     charge density cutoff     =     160.0000  Ry
     scf convergence threshold =      8.0E-09
     mixing beta               =       0.4000
     number of iterations used =            8  plain     mixing
     Exchange-correlation= SLA  PW   PBX  PBC
                           (   1   4   3   4   0   0   0)

     celldm(1)=  24.118843  celldm(2)=   0.000000  celldm(3)=   0.000000
     celldm(4)=   0.000000  celldm(5)=   0.000000  celldm(6)=   0.000000

     crystal axes: (cart. coord. in units of alat)
               a(1) = (   1.000000   0.000000   0.000000 )
               a(2) = (   0.000000   1.000000   0.000000 )
               a(3) = (   0.000000   0.000000   1.000000 )

     reciprocal axes: (cart. coord. in units 2 pi/alat)
               b(1) = (  1.000000  0.000000  0.000000 )
               b(2) = (  0.000000  1.000000  0.000000 )
               b(3) = (  0.000000  0.000000  1.000000 )

     PseudoPot. # 1 for Cs read from file:
     ../../pseudo/Cs_pbe_v1.uspp.F.UPF
     MD5 check sum: 3476d69cb178dfad3ffaa59df4e07ca4
     Pseudo is Ultrasoft + core correction, Zval =  9.0
     Generated by new atomic code, or converted to UPF format
     Using radial grid of  905 points,  6 beta functions with:
                l(1) =   0
                l(2) =   0
                l(3) =   1
                l(4) =   1
                l(5) =   2
                l(6) =   2
     Q(r) pseudized with  6 coefficients,  rinner =    1.500   1.500   1.500
                                                       1.500   1.500

     PseudoPot. # 2 for I  read from file:
     ../../pseudo/I.pbe-n-kjpaw_psl.0.2.UPF
     MD5 check sum: d4ef18d9c8f18dc85e5843bca1e50dc0
     Pseudo is Projector augmented-wave + core cor, Zval =  7.0
     Generated using "atomic" code by A. Dal Corso  v.5.0.99 svn rev. 10869
     Shape of augmentation charge: PSQ
     Using radial grid of 1247 points,  4 beta functions with:
                l(1) =   0
                l(2) =   0
                l(3) =   1
                l(4) =   1
     Q(r) pseudized with 0 coefficients

     PseudoPot. # 3 for Pb read from file:
     ../../pseudo/Pb.pbe-dn-kjpaw_psl.0.2.2.UPF
     MD5 check sum: 9d431e6316058b74ade52399a6cf67da
     Pseudo is Projector augmented-wave + core cor, Zval = 14.0
     Generated using "atomic" code by A. Dal Corso  v.5.0.99 svn rev. 10869
     Shape of augmentation charge: PSQ
     Using radial grid of 1281 points,  6 beta functions with:
                l(1) =   0
                l(2) =   0
                l(3) =   1
                l(4) =   1
                l(5) =   2
                l(6) =   2
     Q(r) pseudized with 0 coefficients

     atomic species   valence    mass     pseudopotential
        Cs             9.00   132.90545     Cs( 1.00)
        I              7.00   126.90447     I ( 1.00)
        Pb            14.00   207.20000     Pb( 1.00)

     48 Sym. Ops., with inversion, found

                                    s                        frac. trans.

      isym =  1     identity

 cryst.   s( 1) = (     1          0          0      )
                  (     0          1          0      )
                  (     0          0          1      )

 cart.    s( 1) = (  1.0000000  0.0000000  0.0000000 )
                  (  0.0000000  1.0000000  0.0000000 )
                  (  0.0000000  0.0000000  1.0000000 )

      isym =  2     180 deg rotation - cart. axis [0,0,1]

[...]

 cryst.   s( 9) = (     0          0          1      )
                  (     0         -1          0      )
                  (     1          0          0      )

 cart.    s( 9) = (  0.0000000  0.0000000  1.0000000 )
                  (  0.0000000 -1.0000000  0.0000000 )
                  (  1.0000000  0.0000000  0.0000000 )

[...]

 cryst.   s(10) = (     0          0         -1      )
                  (     0         -1          0      )
                  (    -1          0          0      )

 cart.    s(10) = (  0.0000000  0.0000000 -1.0000000 )
                  (  0.0000000 -1.0000000  0.0000000 )
                  ( -1.0000000  0.0000000  0.0000000 )

[...]

      isym = 24     120 deg rotation - cart. axis [-1,-1,1]

[...]

      isym = 25     inversion

[...]

      isym = 26     inv. 180 deg rotation - cart. axis [0,0,1]

[...]

      isym = 48     inv. 120 deg rotation - cart. axis [-1,-1,1]

 cryst.   s(48) = (     0         -1          0      )
                  (     0          0          1      )
                  (     1          0          0      )

 cart.    s(48) = (  0.0000000  0.0000000  1.0000000 )
                  ( -1.0000000  0.0000000  0.0000000 )
                  (  0.0000000  1.0000000  0.0000000 )

   Cartesian axes

     site n.     atom                  positions (alat units)
         1           Cs  tau(   1) = (   0.2500001   0.2500001   0.2500001  )
         2           Cs  tau(   2) = (   0.2500001   0.2500001   0.7499999  )
         3           Cs  tau(   3) = (   0.2500001   0.7499999   0.2500001  )
         4           Cs  tau(   4) = (   0.2500001   0.7499999   0.7499999  )
         5           Cs  tau(   5) = (   0.7499999   0.2500001   0.2500001  )
         6           Cs  tau(   6) = (   0.7499999   0.2500001   0.7499999  )
         7           Cs  tau(   7) = (   0.7499999   0.7499999   0.2500001  )
         8           Cs  tau(   8) = (   0.7499999   0.7499999   0.7499999  )
         9           Pb  tau(   9) = (   0.0000000   0.0000000   0.0000000  )
        10           Pb  tau(  10) = (   0.0000000   0.0000000   0.5000000  )
        11           Pb  tau(  11) = (   0.0000000   0.5000000   0.0000000  )
        12           Pb  tau(  12) = (   0.0000000   0.5000000   0.5000000  )
        13           Pb  tau(  13) = (   0.5000000   0.0000000   0.0000000  )
        14           Pb  tau(  14) = (   0.5000000   0.0000000   0.5000000  )
        15           Pb  tau(  15) = (   0.5000000   0.5000000   0.0000000  )
        16           Pb  tau(  16) = (   0.5000000   0.5000000   0.5000000  )
        17           I   tau(  17) = (   0.0000000   0.0000000   0.2500016  )
        18           I   tau(  18) = (   0.0000000   0.0000000   0.7499984  )
        19           I   tau(  19) = (   0.0000000   0.5000000   0.2500017  )
        20           I   tau(  20) = (   0.0000000   0.5000000   0.7499983  )
        21           I   tau(  21) = (   0.5000000   0.0000000   0.2500017  )
        22           I   tau(  22) = (   0.5000000   0.0000000   0.7499983  )
        23           I   tau(  23) = (   0.5000000   0.5000000   0.2500017  )
        24           I   tau(  24) = (   0.5000000   0.5000000   0.7499983  )
        25           I   tau(  25) = (   0.0000000   0.2500016   0.0000000  )
        26           I   tau(  26) = (   0.0000000   0.2500017   0.5000000  )
        27           I   tau(  27) = (   0.0000000   0.7499984   0.0000000  )
        28           I   tau(  28) = (   0.0000000   0.7499983   0.5000000  )
        29           I   tau(  29) = (   0.5000000   0.2500017   0.0000000  )
        30           I   tau(  30) = (   0.5000000   0.2500017   0.5000000  )
        31           I   tau(  31) = (   0.5000000   0.7499983   0.0000000  )
        32           I   tau(  32) = (   0.5000000   0.7499983   0.5000000  )
        33           I   tau(  33) = (   0.2500016   0.0000000   0.0000000  )
        34           I   tau(  34) = (   0.2500017   0.0000000   0.5000000  )
        35           I   tau(  35) = (   0.2500017   0.5000000   0.0000000  )
        36           I   tau(  36) = (   0.2500017   0.5000000   0.5000000  )
        37           I   tau(  37) = (   0.7499984   0.0000000   0.0000000  )
        38           I   tau(  38) = (   0.7499983   0.0000000   0.5000000  )
        39           I   tau(  39) = (   0.7499983   0.5000000   0.0000000  )
        40           I   tau(  40) = (   0.7499983   0.5000000   0.5000000  )

   Crystallographic axes

     site n.     atom                  positions (cryst. coord.)
         1           Cs  tau(   1) = (  0.2500001  0.2500001  0.2500001  )
         2           Cs  tau(   2) = (  0.2500001  0.2500001  0.7499999  )
         3           Cs  tau(   3) = (  0.2500001  0.7499999  0.2500001  )
         4           Cs  tau(   4) = (  0.2500001  0.7499999  0.7499999  )
         5           Cs  tau(   5) = (  0.7499999  0.2500001  0.2500001  )
         6           Cs  tau(   6) = (  0.7499999  0.2500001  0.7499999  )
         7           Cs  tau(   7) = (  0.7499999  0.7499999  0.2500001  )
         8           Cs  tau(   8) = (  0.7499999  0.7499999  0.7499999  )
         9           Pb  tau(   9) = (  0.0000000  0.0000000  0.0000000  )
        10           Pb  tau(  10) = (  0.0000000  0.0000000  0.5000000  )
        11           Pb  tau(  11) = (  0.0000000  0.5000000  0.0000000  )
        12           Pb  tau(  12) = (  0.0000000  0.5000000  0.5000000  )
        13           Pb  tau(  13) = (  0.5000000  0.0000000  0.0000000  )
        14           Pb  tau(  14) = (  0.5000000  0.0000000  0.5000000  )
        15           Pb  tau(  15) = (  0.5000000  0.5000000  0.0000000  )
        16           Pb  tau(  16) = (  0.5000000  0.5000000  0.5000000  )
        17           I   tau(  17) = (  0.0000000  0.0000000  0.2500016  )
        18           I   tau(  18) = (  0.0000000  0.0000000  0.7499984  )
        19           I   tau(  19) = (  0.0000000  0.5000000  0.2500017  )
        20           I   tau(  20) = (  0.0000000  0.5000000  0.7499983  )
        21           I   tau(  21) = (  0.5000000  0.0000000  0.2500017  )
        22           I   tau(  22) = (  0.5000000  0.0000000  0.7499983  )
        23           I   tau(  23) = (  0.5000000  0.5000000  0.2500017  )
        24           I   tau(  24) = (  0.5000000  0.5000000  0.7499983  )
        25           I   tau(  25) = (  0.0000000  0.2500016  0.0000000  )
        26           I   tau(  26) = (  0.0000000  0.2500017  0.5000000  )
        27           I   tau(  27) = (  0.0000000  0.7499984  0.0000000  )
[...]
     atom   19 type  2   force =    -0.00000000    0.00000000   -0.00021075
     atom   20 type  2   force =    -0.00000000    0.00000000    0.00021075
     atom   21 type  2   force =     0.00000000   -0.00000000   -0.00021075
     atom   22 type  2   force =     0.00000000   -0.00000000    0.00021075
     atom   23 type  2   force =     0.00000000    0.00000000   -0.00021115
     atom   24 type  2   force =    -0.00000000   -0.00000000    0.00021115
     atom   25 type  2   force =    -0.00000000   -0.00020855   -0.00000000
     atom   26 type  2   force =    -0.00000000   -0.00021075    0.00000000
     atom   27 type  2   force =    -0.00000000    0.00020855   -0.00000000
     atom   28 type  2   force =    -0.00000000    0.00021075    0.00000000
     atom   29 type  2   force =     0.00000000   -0.00021075   -0.00000000
     atom   30 type  2   force =     0.00000000   -0.00021115    0.00000000
     atom   31 type  2   force =     0.00000000    0.00021075   -0.00000000
     atom   32 type  2   force =    -0.00000000    0.00021115   -0.00000000
     atom   33 type  2   force =    -0.00020855   -0.00000000   -0.00000000
     atom   34 type  2   force =    -0.00021075   -0.00000000    0.00000000
     atom   35 type  2   force =    -0.00021075    0.00000000   -0.00000000
     atom   36 type  2   force =    -0.00021115    0.00000000    0.00000000
     atom   37 type  2   force =     0.00020855   -0.00000000   -0.00000000
     atom   38 type  2   force =     0.00021075   -0.00000000    0.00000000
     atom   39 type  2   force =     0.00021075    0.00000000   -0.00000000
     atom   40 type  2   force =     0.00021115   -0.00000000   -0.00000000
     The local contribution  to forces
     atom    1 type  1   force =     0.00004710    0.00004710    0.00004710
     atom    2 type  1   force =     0.00004710    0.00004710   -0.00004710
     atom    3 type  1   force =     0.00004710   -0.00004710    0.00004710
     atom    4 type  1   force =     0.00004710   -0.00004710   -0.00004710
     atom    5 type  1   force =    -0.00004710    0.00004710    0.00004710
     atom    6 type  1   force =    -0.00004710    0.00004710   -0.00004710
     atom    7 type  1   force =    -0.00004710   -0.00004710    0.00004710
     atom    8 type  1   force =    -0.00004710   -0.00004710   -0.00004710
     atom    9 type  3   force =     0.00000000    0.00000000   -0.00000000
     atom   10 type  3   force =     0.00000000    0.00000000    0.00000000
     atom   11 type  3   force =     0.00000000    0.00000000    0.00000000
     atom   12 type  3   force =     0.00000000    0.00000000    0.00000000
     atom   13 type  3   force =     0.00000000    0.00000000   -0.00000000
     atom   14 type  3   force =     0.00000000    0.00000000    0.00000000
     atom   15 type  3   force =     0.00000000    0.00000000    0.00000000
     atom   16 type  3   force =     0.00000000    0.00000000    0.00000000
     atom   17 type  2   force =     0.00000000    0.00000000    0.00020702
     atom   18 type  2   force =     0.00000000   -0.00000000   -0.00020702
     atom   19 type  2   force =    -0.00000000   -0.00000000    0.00019819
     atom   20 type  2   force =     0.00000000    0.00000000   -0.00019819
     atom   21 type  2   force =    -0.00000000    0.00000000    0.00019819
     atom   22 type  2   force =     0.00000000    0.00000000   -0.00019819
     atom   23 type  2   force =     0.00000000    0.00000000    0.00020237
     atom   24 type  2   force =    -0.00000000   -0.00000000   -0.00020237
     atom   25 type  2   force =     0.00000000    0.00020702    0.00000000
     atom   26 type  2   force =     0.00000000    0.00019819   -0.00000000
     atom   27 type  2   force =     0.00000000   -0.00020702    0.00000000
     atom   28 type  2   force =    -0.00000000   -0.00019819    0.00000000
     atom   29 type  2   force =    -0.00000000    0.00019819    0.00000000
     atom   30 type  2   force =     0.00000000    0.00020237    0.00000000
     atom   31 type  2   force =     0.00000000   -0.00019819    0.00000000
     atom   32 type  2   force =     0.00000000   -0.00020237   -0.00000000
     atom   33 type  2   force =     0.00020702    0.00000000   -0.00000000
     atom   34 type  2   force =     0.00019819   -0.00000000   -0.00000000
     atom   35 type  2   force =     0.00019819    0.00000000   -0.00000000
     atom   36 type  2   force =     0.00020237    0.00000000    0.00000000
     atom   37 type  2   force =    -0.00020702    0.00000000   -0.00000000
     atom   38 type  2   force =    -0.00019819   -0.00000000    0.00000000
     atom   39 type  2   force =    -0.00019819    0.00000000   -0.00000000
     atom   40 type  2   force =    -0.00020237   -0.00000000   -0.00000000
     The core correction contribution to forces
     atom    1 type  1   force =    -0.00000001   -0.00000001   -0.00000001
     atom    2 type  1   force =    -0.00000001   -0.00000001    0.00000001
     atom    3 type  1   force =    -0.00000001    0.00000001   -0.00000001
     atom    4 type  1   force =    -0.00000001    0.00000001    0.00000001
     atom    5 type  1   force =     0.00000001   -0.00000001   -0.00000001
     atom    6 type  1   force =     0.00000001   -0.00000001    0.00000001
     atom    7 type  1   force =     0.00000001    0.00000001   -0.00000001
     atom    8 type  1   force =     0.00000001    0.00000001    0.00000001
     atom    9 type  3   force =     0.00000000    0.00000000    0.00000000
     atom   10 type  3   force =    -0.00000000   -0.00000000    0.00000000
     atom   11 type  3   force =    -0.00000000    0.00000000   -0.00000000
     atom   12 type  3   force =     0.00000000   -0.00000000   -0.00000000
     atom   13 type  3   force =     0.00000000   -0.00000000   -0.00000000
     atom   14 type  3   force =    -0.00000000    0.00000000   -0.00000000
     atom   15 type  3   force =    -0.00000000   -0.00000000    0.00000000
     atom   16 type  3   force =     0.00000000    0.00000000    0.00000000
     atom   17 type  2   force =     0.00000000    0.00000000    0.00000058
     atom   18 type  2   force =     0.00000000    0.00000000   -0.00000058
     atom   19 type  2   force =     0.00000000   -0.00000000    0.00000033
     atom   20 type  2   force =     0.00000000   -0.00000000   -0.00000033
     atom   21 type  2   force =    -0.00000000    0.00000000    0.00000033
     atom   22 type  2   force =    -0.00000000    0.00000000   -0.00000033
     atom   23 type  2   force =    -0.00000000   -0.00000000    0.00000032
     atom   24 type  2   force =     0.00000000    0.00000000   -0.00000032
     atom   25 type  2   force =     0.00000000    0.00000058    0.00000000
     atom   26 type  2   force =     0.00000000    0.00000033   -0.00000000
     atom   27 type  2   force =     0.00000000   -0.00000058    0.00000000
     atom   28 type  2   force =     0.00000000   -0.00000033   -0.00000000
     atom   29 type  2   force =    -0.00000000    0.00000033    0.00000000
     atom   30 type  2   force =    -0.00000000    0.00000032   -0.00000000
     atom   31 type  2   force =    -0.00000000   -0.00000033    0.00000000
     atom   32 type  2   force =     0.00000000   -0.00000032    0.00000000
     atom   33 type  2   force =     0.00000058    0.00000000    0.00000000
     atom   34 type  2   force =     0.00000033    0.00000000   -0.00000000
     atom   35 type  2   force =     0.00000033   -0.00000000    0.00000000
     atom   36 type  2   force =     0.00000032   -0.00000000   -0.00000000
     atom   37 type  2   force =    -0.00000058    0.00000000    0.00000000
     atom   38 type  2   force =    -0.00000033    0.00000000   -0.00000000
     atom   39 type  2   force =    -0.00000033   -0.00000000    0.00000000
     atom   40 type  2   force =    -0.00000032    0.00000000    0.00000000
     The Hubbard contrib.    to forces
     atom    1 type  1   force =     0.00000000    0.00000000    0.00000000
     atom    2 type  1   force =     0.00000000    0.00000000    0.00000000
     atom    3 type  1   force =     0.00000000    0.00000000    0.00000000
     atom    4 type  1   force =     0.00000000    0.00000000    0.00000000
     atom    5 type  1   force =     0.00000000    0.00000000    0.00000000
     atom    6 type  1   force =     0.00000000    0.00000000    0.00000000
     atom    7 type  1   force =     0.00000000    0.00000000    0.00000000
     atom    8 type  1   force =     0.00000000    0.00000000    0.00000000
     atom    9 type  3   force =     0.00000000    0.00000000    0.00000000
     atom   10 type  3   force =     0.00000000    0.00000000    0.00000000
     atom   11 type  3   force =     0.00000000    0.00000000    0.00000000
     atom   12 type  3   force =     0.00000000    0.00000000    0.00000000
     atom   13 type  3   force =     0.00000000    0.00000000    0.00000000
     atom   14 type  3   force =     0.00000000    0.00000000    0.00000000
     atom   15 type  3   force =     0.00000000    0.00000000    0.00000000
     atom   16 type  3   force =     0.00000000    0.00000000    0.00000000
     atom   17 type  2   force =     0.00000000    0.00000000    0.00000000
     atom   18 type  2   force =     0.00000000    0.00000000    0.00000000
     atom   19 type  2   force =     0.00000000    0.00000000    0.00000000
     atom   20 type  2   force =     0.00000000    0.00000000    0.00000000
     atom   21 type  2   force =     0.00000000    0.00000000    0.00000000
     atom   22 type  2   force =     0.00000000    0.00000000    0.00000000
     atom   23 type  2   force =     0.00000000    0.00000000    0.00000000
     atom   24 type  2   force =     0.00000000    0.00000000    0.00000000
     atom   25 type  2   force =     0.00000000    0.00000000    0.00000000
     atom   26 type  2   force =     0.00000000    0.00000000    0.00000000
     atom   27 type  2   force =     0.00000000    0.00000000    0.00000000
     atom   28 type  2   force =     0.00000000    0.00000000    0.00000000
     atom   29 type  2   force =     0.00000000    0.00000000    0.00000000
     atom   30 type  2   force =     0.00000000    0.00000000    0.00000000
     atom   31 type  2   force =     0.00000000    0.00000000    0.00000000
     atom   32 type  2   force =     0.00000000    0.00000000    0.00000000
     atom   33 type  2   force =     0.00000000    0.00000000    0.00000000
     atom   34 type  2   force =     0.00000000    0.00000000    0.00000000
     atom   35 type  2   force =     0.00000000    0.00000000    0.00000000
     atom   36 type  2   force =     0.00000000    0.00000000    0.00000000
     atom   37 type  2   force =     0.00000000    0.00000000    0.00000000
     atom   38 type  2   force =     0.00000000    0.00000000    0.00000000
     atom   39 type  2   force =     0.00000000    0.00000000    0.00000000
     atom   40 type  2   force =     0.00000000    0.00000000    0.00000000
     The SCF correction term to forces
     atom    1 type  1   force =     0.00000224    0.00000224    0.00000224
     atom    2 type  1   force =     0.00000224    0.00000224   -0.00000224
     atom    3 type  1   force =     0.00000224   -0.00000224    0.00000224
     atom    4 type  1   force =     0.00000224   -0.00000224   -0.00000224
     atom    5 type  1   force =    -0.00000224    0.00000224    0.00000224
     atom    6 type  1   force =    -0.00000224    0.00000224   -0.00000224
     atom    7 type  1   force =    -0.00000224   -0.00000224    0.00000224
     atom    8 type  1   force =    -0.00000224   -0.00000224   -0.00000224
     atom    9 type  3   force =     0.00000000    0.00000000    0.00000000
     atom   10 type  3   force =     0.00000000    0.00000000   -0.00000000
     atom   11 type  3   force =    -0.00000000   -0.00000000    0.00000000
     atom   12 type  3   force =    -0.00000000   -0.00000000    0.00000000
     atom   13 type  3   force =     0.00000000   -0.00000000    0.00000000
     atom   14 type  3   force =    -0.00000000    0.00000000   -0.00000000
     atom   15 type  3   force =    -0.00000000   -0.00000000    0.00000000
     atom   16 type  3   force =     0.00000000   -0.00000000    0.00000000
     atom   17 type  2   force =     0.00000000   -0.00000000   -0.00000469
     atom   18 type  2   force =     0.00000000   -0.00000000    0.00000469
     atom   19 type  2   force =    -0.00000000   -0.00000000    0.00000678
     atom   20 type  2   force =    -0.00000000   -0.00000000   -0.00000678
     atom   21 type  2   force =     0.00000000   -0.00000000    0.00000678
     atom   22 type  2   force =     0.00000000    0.00000000   -0.00000678
     atom   23 type  2   force =    -0.00000000   -0.00000000    0.00000288
     atom   24 type  2   force =    -0.00000000   -0.00000000   -0.00000288
     atom   25 type  2   force =    -0.00000000   -0.00000469    0.00000000
     atom   26 type  2   force =    -0.00000000    0.00000678   -0.00000000
     atom   27 type  2   force =     0.00000000    0.00000469    0.00000000
     atom   28 type  2   force =     0.00000000   -0.00000678   -0.00000000
     atom   29 type  2   force =     0.00000000    0.00000678    0.00000000
     atom   30 type  2   force =    -0.00000000    0.00000288   -0.00000000
     atom   31 type  2   force =     0.00000000   -0.00000678    0.00000000
     atom   32 type  2   force =    -0.00000000   -0.00000288   -0.00000000
     atom   33 type  2   force =    -0.00000469    0.00000000    0.00000000
     atom   34 type  2   force =     0.00000678   -0.00000000    0.00000000
     atom   35 type  2   force =     0.00000678   -0.00000000    0.00000000
     atom   36 type  2   force =     0.00000288   -0.00000000   -0.00000000
     atom   37 type  2   force =     0.00000469    0.00000000    0.00000000
     atom   38 type  2   force =    -0.00000678   -0.00000000    0.00000000
     atom   39 type  2   force =    -0.00000678   -0.00000000    0.00000000
     atom   40 type  2   force =    -0.00000288   -0.00000000   -0.00000000

     Total force =     0.000022     Total SCF correction =     0.000029
     SCF correction compared to forces is large: reduce conv_thr to get better values

     Computing stress (Cartesian axis) and pressure

          total   stress  (Ry/bohr**3)                   (kbar)     P=       -1.95
  -0.00001328   0.00000000   0.00000000           -1.95        0.00        0.00
   0.00000000  -0.00001328   0.00000000            0.00       -1.95        0.00
   0.00000000   0.00000000  -0.00001328            0.00        0.00       -1.95

     kinetic stress (kbar)   3450.67      0.00      0.00
                                0.00   3450.67      0.00
                                0.00      0.00   3450.67

     local   stress (kbar)   -368.81      0.00      0.00
                                0.00   -368.81     -0.00
                                0.00     -0.00   -368.81

     nonloc. stress (kbar)    893.01      0.00      0.00
                                0.00    893.01      0.00
                                0.00      0.00    893.01

     hartree stress (kbar)   1917.81     -0.00     -0.00
                               -0.00   1917.81      0.00
                               -0.00      0.00   1917.81

     exc-cor stress (kbar)  12007.57      0.00     -0.00
                                0.00  12007.57      0.00
                               -0.00      0.00  12007.57

     corecor stress (kbar) -13606.18      0.00     -0.00
                                0.00 -13606.18      0.00
                               -0.00      0.00 -13606.18

     ewald   stress (kbar)  -4296.03     -0.00     -0.00
                               -0.00  -4296.03     -0.00
                               -0.00     -0.00  -4296.03

     hubbard stress (kbar)      0.00      0.00      0.00
                                0.00      0.00      0.00
                                0.00      0.00      0.00

     DFT-D   stress (kbar)      0.00      0.00      0.00
                                0.00      0.00      0.00
                                0.00      0.00      0.00

     XDM     stress (kbar)      0.00      0.00      0.00
                                0.00      0.00      0.00
                                0.00      0.00      0.00

     dft-nl  stress (kbar)      0.00      0.00      0.00
                                0.00      0.00      0.00
                                0.00      0.00      0.00

     TS-vdW  stress (kbar)      0.00      0.00      0.00
                                0.00      0.00      0.00
                                0.00      0.00      0.00

     Writing output data file ../../out/aiida.save/

     General routines

     Parallel routines

     PAW routines

   This run was terminated on:   6:24: 6   5Apr2024

   JOB DONE.